feasible solution found by trivial heuristic after 0.4 seconds, objective value 0.000000e+00
presolving:
(round 1, fast)       39459 del vars, 7960 del conss, 0 add conss, 112 chg bounds, 3812 chg sides, 0 chg coeffs, 0 upgd conss, 0 impls, 35535 clqs
(round 2, fast)       39571 del vars, 7960 del conss, 0 add conss, 112 chg bounds, 3812 chg sides, 0 chg coeffs, 0 upgd conss, 0 impls, 35535 clqs
   (1.1s) running MILP presolver
   (1.3s) MILP presolver found nothing
(round 3, exhaustive) 39571 del vars, 7960 del conss, 0 add conss, 112 chg bounds, 3812 chg sides, 0 chg coeffs, 35535 upgd conss, 0 impls, 35535 clqs
   (2.5s) probing: 51/112 (45.5%) - 0 fixings, 0 aggregations, 0 implications, 0 bound changes
   (2.5s) probing aborted: 50/50 successive totally useless probings
   (2.6s) symmetry computation started: requiring (bin +, int -, cont +), (fixed: bin -, int +, cont -)
   (2.7s) no symmetry present
presolving (4 rounds: 4 fast, 2 medium, 2 exhaustive):
 39571 deleted vars, 7960 deleted constraints, 0 added constraints, 112 tightened bounds, 0 added holes, 3812 changed sides, 0 changed coefficients
 0 implications, 35535 cliques
presolved problem has 112 variables (112 bin, 0 int, 0 impl, 0 cont) and 35535 constraints
  35535 constraints of type <setppc>
Presolving Time: 2.55

 time | node  | left  |LP iter|LP it/n|mem/heur|mdpt |vars |cons |rows |cuts |sepa|confs|strbr|  dualbound   | primalbound  |  gap   | compl. 
t 2.9s|     1 |     0 |     0 |     - | trivial|   0 | 112 |  35k|   0 |   0 |  0 |   0 |   0 | 1.441094e+08 | 1.440552e+08 |   0.04%| unknown
p 3.1s|     1 |     0 |     0 |     - |  clique|   0 | 112 |  35k|  35k|   0 |  0 |   0 |   0 | 1.441094e+08 | 1.440588e+08 |   0.04%| unknown
p 3.2s|     1 |     0 |    42 |     - | vbounds|   0 | 112 |  35k|  35k|   0 |  0 |   0 |   0 | 1.441094e+08 | 1.440591e+08 |   0.03%| unknown
  6.1s|     1 |     0 |  1315 |     - |   268M |   0 | 112 |  35k|  35k|   0 |  0 |   0 |   0 | 1.440621e+08 | 1.440591e+08 |   0.00%| unknown
  7.1s|     1 |     0 |  1561 |     - |   272M |   0 | 112 |  35k|  35k|   1 |  1 |   0 |   0 | 1.440621e+08 | 1.440591e+08 |   0.00%| unknown
  7.9s|     1 |     0 |  1776 |     - |   277M |   0 | 112 |  35k|  35k|   2 |  2 |   0 |   0 | 1.440621e+08 | 1.440591e+08 |   0.00%| unknown
  8.5s|     1 |     0 |  1941 |     - |   282M |   0 | 112 |  35k|  35k|   3 |  3 |   0 |   0 | 1.440621e+08 | 1.440591e+08 |   0.00%| unknown
  9.2s|     1 |     0 |  2120 |     - |   286M |   0 | 112 |  35k|  35k|   4 |  4 |   0 |   0 | 1.440620e+08 | 1.440591e+08 |   0.00%| unknown
 10.0s|     1 |     0 |  2288 |     - |   290M |   0 | 112 |  35k|  35k|   5 |  5 |   0 |   0 | 1.440620e+08 | 1.440591e+08 |   0.00%| unknown
 10.5s|     1 |     0 |  2465 |     - |   295M |   0 | 112 |  35k|  35k|   6 |  6 |   0 |   0 | 1.440620e+08 | 1.440591e+08 |   0.00%| unknown
 11.1s|     1 |     0 |  2644 |     - |   299M |   0 | 112 |  35k|  35k|   7 |  7 |   0 |   0 | 1.440620e+08 | 1.440591e+08 |   0.00%| unknown
 11.6s|     1 |     0 |  2773 |     - |   305M |   0 | 112 |  35k|  35k|   8 |  8 |   0 |   0 | 1.440620e+08 | 1.440591e+08 |   0.00%| unknown
 12.3s|     1 |     0 |  2946 |     - |   308M |   0 | 112 |  35k|  35k|   9 |  9 |   0 |   0 | 1.440620e+08 | 1.440591e+08 |   0.00%| unknown
 12.9s|     1 |     0 |  3156 |     - |   312M |   0 | 112 |  35k|  35k|  10 | 10 |   0 |   0 | 1.440620e+08 | 1.440591e+08 |   0.00%| unknown
 13.2s|     1 |     0 |  3233 |     - |   316M |   0 | 112 |  35k|  35k|  11 | 11 |   0 |   0 | 1.440620e+08 | 1.440591e+08 |   0.00%| unknown
 time | node  | left  |LP iter|LP it/n|mem/heur|mdpt |vars |cons |rows |cuts |sepa|confs|strbr|  dualbound   | primalbound  |  gap   | compl. 
 13.6s|     1 |     0 |  3282 |     - |   320M |   0 | 112 |  35k|  35k|  12 | 12 |   0 |   0 | 1.440620e+08 | 1.440591e+08 |   0.00%| unknown
 13.8s|     1 |     0 |  3320 |     - |   323M |   0 | 112 |  35k|  35k|  13 | 13 |   0 |   0 | 1.440620e+08 | 1.440591e+08 |   0.00%| unknown
 14.1s|     1 |     0 |  3353 |     - |   327M |   0 | 112 |  35k|  35k|  14 | 14 |   0 |   0 | 1.440620e+08 | 1.440591e+08 |   0.00%| unknown
 14.3s|     1 |     0 |  3402 |     - |   331M |   0 | 112 |  35k|  35k|  15 | 15 |   0 |   0 | 1.440620e+08 | 1.440591e+08 |   0.00%| unknown
 14.6s|     1 |     0 |  3443 |     - |   335M |   0 | 112 |  35k|  35k|  16 | 16 |   0 |   0 | 1.440620e+08 | 1.440591e+08 |   0.00%| unknown
 14.8s|     1 |     0 |  3459 |     - |   339M |   0 | 112 |  35k|  35k|  17 | 17 |   0 |   0 | 1.440620e+08 | 1.440591e+08 |   0.00%| unknown
 15.0s|     1 |     0 |  3499 |     - |   343M |   0 | 112 |  35k|  35k|  18 | 18 |   0 |   0 | 1.440620e+08 | 1.440591e+08 |   0.00%| unknown
 15.2s|     1 |     0 |  3513 |     - |   346M |   0 | 112 |  35k|  35k|  19 | 19 |   0 |   0 | 1.440620e+08 | 1.440591e+08 |   0.00%| unknown
 15.4s|     1 |     0 |  3557 |     - |   350M |   0 | 112 |  35k|  35k|  20 | 20 |   0 |   0 | 1.440620e+08 | 1.440591e+08 |   0.00%| unknown
d17.5s|     1 |     0 |  4406 |     - |farkasdi|   0 | 112 |  35k|  35k|   0 | 20 |   1 |   0 | 1.440620e+08 | 1.440601e+08 |   0.00%| unknown
 18.6s|     1 |     0 |  4827 |     - |   351M |   0 | 112 |  35k|  35k|  20 | 20 |   3 |   0 | 1.440620e+08 | 1.440601e+08 |   0.00%| unknown
 18.9s|     1 |     0 |  4844 |     - |   351M |   0 | 112 |  35k|  35k|  21 | 21 |   3 |   0 | 1.440620e+08 | 1.440601e+08 |   0.00%| unknown
 19.2s|     1 |     0 |  4893 |     - |   351M |   0 | 112 |  35k|  35k|  22 | 22 |   3 |   0 | 1.440620e+08 | 1.440601e+08 |   0.00%| unknown
*20.2s|     1 |     0 |  4893 |     - |strongbr|   0 | 112 |  35k|  35k|  22 | 22 |   3 |   0 | 1.440620e+08 | 1.440609e+08 |   0.00%| unknown
 26.2s|     1 |     0 |  5994 |     - |   352M |   0 | 112 |  35k|  35k|  22 | 22 |   5 |   5 | 1.440616e+08 | 1.440609e+08 |   0.00%| unknown
 time | node  | left  |LP iter|LP it/n|mem/heur|mdpt |vars |cons |rows |cuts |sepa|confs|strbr|  dualbound   | primalbound  |  gap   | compl. 
 30.5s|     1 |     0 |  6743 |     - |   354M |   0 | 112 |  35k|  35k|  22 | 24 |  14 |  10 | 1.440612e+08 | 1.440609e+08 |   0.00%| unknown
 32.3s|     1 |     0 |  7036 |     - |   354M |   0 | 112 |  35k|  35k|  22 | 26 |  24 |  15 | 1.440609e+08 | 1.440609e+08 |   0.00%| unknown

SCIP Status        : problem is solved [optimal solution found]
Solving Time (sec) : 32.34
Solving Nodes      : 1
Primal Bound       : +1.44060920891385e+08 (35 solutions)
Dual Bound         : +1.44060920891385e+08
Gap                : 0.00 %
Solve Status: optimal
Solve Time: 32.36 seconds
